SCIP Status        : solving was interrupted [time limit reached]
Total Time         :    3600.00
  solving          :    3600.00
  presolving       :       0.41 (included in solving)
  reading          :       0.00
  copying          :       3.31 (58 #copies) (minimal 0.00, maximal 0.16, average 0.06)
Original Problem   :
  Problem name     : bbbenchmark/g05_100.3.cut
  Variables        : 101 (100 binary, 0 integer, 0 implicit integer, 1 continuous)
  Constraints      : 1 initial, 1 maximal
  Objective        : minimize, 1 non-zeros (abs.min = 1, abs.max = 1)
Presolved Problem  :
  Problem name     : t_bbbenchmark/g05_100.3.cut
  Variables        : 1898 (100 binary, 0 integer, 1784 implicit integer, 14 continuous)
  Constraints      : 1824 initial, 11828 maximal
  Objective        : minimize, 1 non-zeros (abs.min = 1, abs.max = 1)
  Nonzeros         : 8697 constraint, 202 clique table
Presolvers         :   ExecTime  SetupTime  Calls  FixedVars   AggrVars   ChgTypes  ChgBounds   AddHoles    DelCons    AddCons   ChgSides   ChgCoefs
  boundshift       :       0.00       0.00      0          0          0          0          0          0          0          0          0          0
  convertinttobin  :       0.00       0.00      0          0          0          0          0          0          0          0          0          0
  domcol           :       0.00       0.00      1          0          0          0          0          0          0          0          0          0
  dualagg          :       0.00       0.00      0          0          0          0          0          0          0          0          0          0
  dualcomp         :       0.00       0.00      1          0          0          0          0          0          0          0          0          0
  dualinfer        :       0.00       0.00      0          0          0          0          0          0          0          0          0          0
  dualsparsify     :       0.00       0.00      1          0          0          0          0          0          0          0          0          0
  gateextraction   :       0.00       0.00      0          0          0          0          0          0          0          0          0          0
  implics          :       0.00       0.00      2          0          0          0          0          0          0          0          0          0
  inttobinary      :       0.00       0.00      0          0          0          0          0          0          0          0          0          0
  qpkktref         :       0.00       0.00      0          0          0          0          0          0          0          0          0          0
  redvub           :       0.00       0.00      0          0          0          0          0          0          0          0          0          0
  sparsify         :       0.00       0.00      1          0          0          0          0          0          0          0          0          0
  stuffing         :       0.00       0.00      0          0          0          0          0          0          0          0          0          0
  trivial          :       0.00       0.00      4          0          0          0          0          0          0          0          0          0
  tworowbnd        :       0.00       0.00      0          0          0          0          0          0          0          0          0          0
  dualfix          :       0.00       0.00      4          0          0          0          0          0          0          0          0          0
  genvbounds       :       0.00       0.00      0          0          0          0          0          0          0          0          0          0
  probing          :       0.32       0.00      1          0          0          0          0          0          0          0          0          0
  pseudoobj        :       0.00       0.00      1          0          0          0          1          0          0          0          0          0
  symmetry         :       0.00       0.00      0          0          0          0          0          0          0          0          0          0
  vbounds          :       0.00       0.00      1          0          0          0          0          0          0          0          0          0
  varbound         :       0.00       0.00      2          0          0          0          0          0          0          0          0          0
  and              :       0.01       0.01      2          0          0          0          0          0          0          0          0          0
  linear           :       0.00       0.00      2          0          0          0          0          0          0          0          0          0
  logicor          :       0.00       0.00      0          0          0          0          0          0          0          0          0          0
  bounddisjunction :       0.00       0.00      0          0          0          0          0          0          0          0          0          0
  nonlinear        :       0.08       0.01      5          0          0          0          1          0          0       1823          0          0
  benders          :       0.00       0.00      0          0          0          0          0          0          0          0          0          0
  components       :       0.00       0.00      1          0          0          0          0          0          0          0          0          0
  root node        :          -          -      -          0          -          -         15          -          -          -          -          -
Constraints        :     Number  MaxNumber  #Separate #Propagate    #EnfoLP    #EnfoRelax  #EnfoPS    #Check   #ResProp    Cutoffs    DomReds       Cuts    Applied      Conss   Children
  benderslp        :          0          0          0          0     139536          0          0      10912          0          0          0          0          0          0          0
  integral         :          0          0          0          0     139536          0          0      10912          0          1        632          0          0        518     278078
  varbound         :         13         13         85     683780          0          0          0         47          0          0      48366          0          0          0          0
  and              :       1784       1784     167246     936035         14          0          0         47     679080          1    2769588      17426      17088          0          0
  linear           :         27+        38         85     936073         14          0          0         45        494          6     589974          0          0          0          0
  logicor          :          0+      9992          0     149572          0          0          0          0         42        667         47          0          0          0          0
  bounddisjunction :          0+       543          0      48868          0          0          0          0          2         15          2          0          0          0          0
  benders          :          0          0          0          0         14          0          0         34          0          0          0          0          0          0          0
  countsols        :          0          0          0          0         14          0          0         34          0          0          0          0          0          0          0
  components       :          0          0          0          0          0          0          0          0          0          0          0          0          0          0          0
Constraint Timings :  TotalTime  SetupTime   Separate  Propagate     EnfoLP     EnfoPS     EnfoRelax   Check    ResProp    SB-Prop
  benderslp        :       0.15       0.00       0.00       0.00       0.15       0.00       0.00       0.00       0.00       0.00
  integral         :      67.88       0.00       0.00       0.00      67.85       0.00       0.00       0.03       0.00       0.00
  varbound         :       0.86       0.00       0.00       0.84       0.00       0.00       0.00       0.01       0.00       0.01
  and              :     152.22       0.01     105.26      45.79       0.00       0.00       0.00       0.02       0.51       0.63
  linear           :       6.40       0.00       0.06       6.31       0.00       0.00       0.00       0.00       0.00       0.03
  logicor          :      16.97       0.00       0.00      16.96       0.00       0.00       0.00       0.00       0.00       0.01
  bounddisjunction :       0.84       0.00       0.00       0.84       0.00       0.00       0.00       0.00       0.00       0.00
  benders          :       0.00       0.00       0.00       0.00       0.00       0.00       0.00       0.00       0.00       0.00
  countsols        :       0.00       0.00       0.00       0.00       0.00       0.00       0.00       0.00       0.00       0.00
  components       :       0.21       0.00       0.00       0.21       0.00       0.00       0.00       0.00       0.00       0.00
Propagators        : #Propagate   #ResProp    Cutoffs    DomReds
  dualfix          :          4          0          0          0
  genvbounds       :          0          0          0          0
  nlobbt           :          0          0          0          0
  obbt             :          0          0          0          0
  probing          :          0          0          0          0
  pseudoobj        :     609453          0          0         68
  redcost          :     328965          0          0     346232
  rootredcost      :         28          0          0          0
  symmetry         :          0          0          0          0
  vbounds          :     122028          0          0          0
Propagator Timings :  TotalTime  SetupTime   Presolve  Propagate    ResProp    SB-Prop
  dualfix          :       0.00       0.00       0.00       0.00       0.00       0.00
  genvbounds       :       0.51       0.00       0.00       0.51       0.00       0.00
  nlobbt           :       0.00       0.00       0.00       0.00       0.00       0.00
  obbt             :       0.00       0.00       0.00       0.00       0.00       0.00
  probing          :       0.32       0.00       0.32       0.00       0.00       0.00
  pseudoobj        :       1.06       0.00       0.00       1.06       0.00       0.00
  redcost          :      23.07       0.00       0.00      23.07       0.00       0.00
  rootredcost      :       0.68       0.00       0.00       0.68       0.00       0.00
  symmetry         :       0.50       0.00       0.00       0.50       0.00       0.00
  vbounds          :       1.00       0.00       0.00       0.99       0.00       0.01
Conflict Analysis  :       Time      Calls    Success    DomReds  Conflicts   Literals    Reconvs ReconvLits   Dualrays   Nonzeros   LP Iters   (pool size: [10000,10000])
  propagation      :       0.03        683        554          -        674       65.0          0        0.0          -          -          -
  infeasible LP    :       0.07         23         23          -        966      148.5          0        0.0         61      154.7          0
  bound exceed. LP :      33.33       9038       8398          -     201954      105.4          1        9.0          0        0.0      73418
  strong branching :       0.00          0          0          -          0        0.0          0        0.0          -          -          0
  pseudo solution  :       0.00          0          0          -          0        0.0          0        0.0          -          -          -
  applied globally :       1.28          -          -          0      48874      113.9          -          -         61          -          -
  applied locally  :          -          -          -          0          0        0.0          -          -          0          -          -
Separators         :   ExecTime  SetupTime      Calls  RootCalls    Cutoffs    DomReds  FoundCuts ViaPoolAdd  DirectAdd    Applied ViaPoolApp  DirectApp      Conss
  cut pool         :       6.33          -      30648        108          -          -      32065    1474764          -          -          -          -          -    (maximal pool size:       4285)
  aggregation      :      11.72       0.00       4521         85          0          0         98        188          0         72         72          0          0
  > cmir           :          -          -          -          -          -          -          -        188          0         72         72          0          -
  > flowcover      :          -          -          -          -          -          -          -          0          0          0          0          0          -
  > knapsackcover  :          -          -          -          -          -          -          -          0          0          0          0          0          -
  cgmip            :       0.00       0.00          0          0          0          0          0          0          0          0          0          0          0
  clique           :       0.01       0.00         85         85          0          0          0          0          0          0          0          0          0
  closecuts        :       0.00       0.00          0          0          0          0          0          0          0          0          0          0          0
  convexproj       :       0.00       0.00          0          0          0          0          0          0          0          0          0          0          0
  disjunctive      :       0.00       0.00          0          0          0          0          0          0          0          0          0          0          0
  eccuts           :       0.00       0.00          0          0          0          0          0          0          0          0          0          0          0
  gauge            :       0.00       0.00          0          0          0          0          0          0          0          0          0          0          0
  gomory           :       0.00       0.00          0          0          0          0          0          0          0          0          0          0          0
  > gomorymi       :          -          -          -          -          -          -          -          0          0          0          0          0          -
  > strongcg       :          -          -          -          -          -          -          -          0          0          0          0          0          -
  impliedbounds    :       0.33       0.00       4521         85          0          0         21          4          0          2          2          0          0
  interlattice     :       0.45       0.00         60         60          0          0         60          0         60         59          0         59          0
  interminor       :       0.00       0.00          0          0          0          0          0          0          0          0          0          0          0
  intersub         :       0.00       0.00          0          0          0          0          0          0          0          0          0          0          0
  intobj           :       0.00       0.00          0          0          0          0          0          0          0          0          0          0          0
  mcf              :       0.00       0.00          1          1          0          0          0          0          0          0          0          0          0
  minor            :       0.01       0.00          0          0          0          0          0          0          0          0          0          0          0
  mixing           :       0.03       0.00       4521         85          0          0          0          0          0          0          0          0          0
  oddcycle         :       0.00       0.00          0          0          0          0          0          0          0          0          0          0          0
  rapidlearning    :       0.01       0.00          0          0          0          0          0          0          0          0          0          0          0
  rlt              :       0.00       0.00         10         10          0          0          0          0          0          0          0          0          0
  zerohalf         :      39.74       0.00       4126         20          0          0      31946    1474572          0     160948     160948          0          0
Cutselectors       :   ExecTime  SetupTime      Calls  RootCalls   Selected     Forced   Filtered  RootSelec   RootForc   RootFilt 
  hybrid           :       1.68       0.00      27942         83     178169          0    1314081        249          0         40
Pricers            :   ExecTime  SetupTime      Calls       Vars
  problem variables:       0.00          -          0          0
Branching Rules    :   ExecTime  SetupTime   BranchLP  BranchExt   BranchPS    Cutoffs    DomReds       Cuts      Conss   Children
  allfullstrong    :       0.00       0.00          0          0          0          0          0          0          0          0
  cloud            :       0.00       0.00          0          0          0          0          0          0          0          0
  distribution     :       0.00       0.00          0          0          0          0          0          0          0          0
  fullstrong       :       0.00       0.00          0          0          0          0          0          0          0          0
  inference        :       0.00       0.00          0          0          0          0          0          0          0          0
  leastinf         :       0.00       0.00          0          0          0          0          0          0          0          0
  lookahead        :       0.00       0.00          0          0          0          0          0          0          0          0
  mostinf          :       0.00       0.00          0          0          0          0          0          0          0          0
  multaggr         :       0.00       0.00          0          0          0          0          0          0          0          0
  nodereopt        :       0.00       0.00          0          0          0          0          0          0          0          0
  pscost           :       0.00       0.00          0          0          0          0          0          0          0          0
  random           :       0.00       0.00          0          0          0          0          0          0          0          0
  relpscost        :      67.39       0.00     139522          0          0          1        632          0        535     278078
  vanillafullstrong:       0.00       0.00          0          0          0          0          0          0          0          0
Primal Heuristics  :   ExecTime  SetupTime      Calls      Found       Best
  LP solutions     :       0.16          -          -         14         14
  relax solutions  :       0.00          -          -          0          0
  pseudo solutions :       0.00          -          -          0          0
  strong branching :       0.06          -          -          1          1
  actconsdiving    :       0.00       0.00          0          0          0
  adaptivediving   :      13.83       0.00        109          1          1
  alns             :       6.63       0.00         25          5          5
  bound            :       0.00       0.00          0          0          0
  clique           :       0.01       0.00          1          0          0
  coefdiving       :       0.00       0.00          0          0          0
  completesol      :       0.00       0.00          0          0          0
  conflictdiving   :     173.49       0.00       1548          0          0
  crossover        :       3.60       0.00          6          0          0
  dins             :       0.00       0.00          0          0          0
  distributiondivin:      80.44       0.00        428          0          0
  dps              :       0.00       0.00          0          0          0
  dualval          :       0.00       0.00          0          0          0
  farkasdiving     :       0.01       0.00          0          0          0
  feaspump         :       0.24       0.00          1          1          1
  fixandinfer      :       0.00       0.00          0          0          0
  fracdiving       :      57.78       0.00        576          0          0
  gins             :       0.24       0.00          0          0          0
  guideddiving     :      59.06       0.00        560          1          1
  indicator        :       0.06       0.00          0          0          0
  indicatordiving  :       0.00       0.00          0          0          0
  intdiving        :       0.00       0.00          0          0          0
  intshifting      :       0.59       0.00         86          0          0
  linesearchdiving :      59.44       0.00        569          0          0
  localbranching   :       0.00       0.00          0          0          0
  locks            :       0.01       0.00          1          0          0
  lpface           :       0.24       0.00          0          0          0
  mpec             :     169.88       0.00         11          5          5
  multistart       :       0.00       0.00          0          0          0
  mutation         :       0.00       0.00          0          0          0
  nlpdiving        :      17.64       0.00          5          1          0
  objpscostdiving  :      49.14       0.00         70         10          0
  octane           :       0.00       0.00          0          0          0
  ofins            :       0.16       0.00          0          0          0
  oneopt           :       0.23       0.00         32          0          0
  padm             :       0.00       0.00          0          0          0
  proximity        :       0.00       0.00          0          0          0
  pscostdiving     :      56.33       0.00        459          1          1
  randrounding     :       0.91       0.00      10874          0          0
  rens             :       0.00       0.00          0          0          0
  reoptsols        :       0.00       0.00          0          0          0
  repair           :       0.00       0.00          0          0          0
  rins             :       5.32       0.00         26          0          0
  rootsoldiving    :      35.38       0.00         34          0          0
  rounding         :       1.86       0.00       5643          0          0
  shiftandpropagate:       0.00       0.00          0          0          0
  shifting         :      46.19       0.00       9954          2          2
  simplerounding   :       0.21       0.00          0          0          0
  subnlp           :     254.21       0.00          0          0          0
  trivial          :       0.00       0.00          2          2          2
  trivialnegation  :       0.00       0.00          0          0          0
  trustregion      :       0.00       0.00          0          0          0
  trysol           :       0.15       0.00          0          0          0
  twoopt           :       0.00       0.00          0          0          0
  undercover       :       1.56       0.00          1          1          1
  vbounds          :       0.00       0.00          0          0          0
  veclendiving     :      59.97       0.00        549          0          0
  zeroobj          :       0.00       0.00          0          0          0
  zirounding       :       0.57       0.00       1000          0          0
  other solutions  :          -          -          -          0          -
Diving (single)    :      Calls      Nodes   LP Iters Backtracks  Conflicts   MinDepth   MaxDepth   AvgDepth  RoundSols  NLeafSols  MinSolDpt  MaxSolDpt  AvgSolDpt
  actconsdiving    :          0          -          -          -          -          -          -          -          -          -          -          -          -
  coefdiving       :          0          -          -          -          -          -          -          -          -          -          -          -          -
  conflictdiving   :       1548      64341    1875493       1684      92744         53         81       64.6          0          -          -          -          -
  distributiondivin:        428      15459     636572        471       6918         50         72       57.3          0          -          -          -          -
  farkasdiving     :          0          -          -          -          -          -          -          -          -          -          -          -          -
  fracdiving       :        576      44728     633482        339       6594         61        294      100.0          0          -          -          -          -
  guideddiving     :        560      43742     644807        372       9084         58        264      100.6          0          1        106        106      106.0
  indicatordiving  :          0          -          -          -          -          -          -          -          -          -          -          -          -
  linesearchdiving :        569      21369     632921        556      33320         48         90       59.2          0          -          -          -          -
  pscostdiving     :        459      20737     649738        473      12487         56         79       66.5          0          1         79         79       79.0
  veclendiving     :        549      22099     632979        526      36307         52         80       61.6          0          -          -          -          -
Diving (adaptive)  :      Calls      Nodes   LP Iters Backtracks  Conflicts   MinDepth   MaxDepth   AvgDepth  RoundSols  NLeafSols  MinSolDpt  MaxSolDpt  AvgSolDpt
  actconsdiving    :         24        917      33007         16        160         54         63       58.6          0          1         54         54       54.0
  coefdiving       :         32       1282      38794         27       1944         55         77       60.8          0          -          -          -          -
  conflictdiving   :          0          -          -          -          -          -          -          -          -          -          -          -          -
  distributiondivin:          0          -          -          -          -          -          -          -          -          -          -          -          -
  farkasdiving     :          0          -          -          -          -          -          -          -          -          -          -          -          -
  fracdiving       :          2        136       2800          2         71         82         97       89.5          0          -          -          -          -
  guideddiving     :          6        555       7835          4        111         88        139      110.2          0          -          -          -          -
  indicatordiving  :          0          -          -          -          -          -          -          -          -          -          -          -          -
  linesearchdiving :         14        559      19505         14        826         50         70       57.6          0          -          -          -          -
  pscostdiving     :         10        445      12812         10        301         64         74       67.9          0          -          -          -          -
  veclendiving     :         21        841      23709         17       1344         54         82       61.3          0          -          -          -          -
Neighborhoods      :      Calls  SetupTime  SolveTime SolveNodes       Sols       Best       Exp3  EpsGreedy        UCB TgtFixRate  Opt  Inf Node Stal  Sol  Usr Othr Actv
  rens             :          4       0.61       0.81         84          0          0    0.00000   -1.00000    0.46481      0.522    0    3    0    1    0    0    0    1
  rins             :          2       0.23       0.11         67          0          0    0.00000   -1.00000    0.47555      0.850    0    1    0    1    0    0    0    1
  mutation         :          2       0.18       0.10         66          0          0    0.00000   -1.00000    0.47460      0.850    0    1    0    1    0    0    0    1
  localbranching   :          3       0.52       0.45        475          1          1    0.00000   -1.00000    0.46769      0.812    0    1    0    2    0    0    0    1
  crossover        :          4       0.16       0.34        120          1          1    0.00000   -1.00000    0.51217      0.522    1    2    0    1    0    0    0    1
  proximity        :          2       0.17       0.11         84          0          0    0.00000   -1.00000    0.47054      0.850    0    1    0    1    0    0    0    1
  zeroobjective    :          6       0.53       1.67       1789          2          2    0.00000   -1.00000    0.50017      0.858    2    0    0    4    0    0    0    1
  dins             :          2       0.08       0.30        299          1          1    0.00000   -1.00000    0.49862      0.850    1    0    0    1    0    0    0    1
  trustregion      :          0       0.00       0.00          0          0          0    0.00000   -1.00000    1.00000      0.900    0    0    0    0    0    0    0    0
Expressions        :   #IntEval  IntEvalTi   #RevProp  RevPropTi    DomReds    Cutoffs  #Estimate  EstimTime  Branching  #Simplify SimplifyTi Simplified
  pow              :          0       0.00          0       0.00          0          0          0       0.00          0          0       0.00          0
  prod             :       9900       0.00          0       0.00          0          0          0       0.00          0       6734       0.03          0
  sum              :          8       0.00          2       0.00          0          0          0       0.00          0          3       0.01          2
  var              :       6503       0.00          0       0.00          0          0          0       0.00          0      15568       0.00          0
  varidx           :          0       0.00          0       0.00          0          0          0       0.00          0          0       0.00          0
LP                 :       Time      Calls Iterations  Iter/call   Iter/sec  Time-0-It Calls-0-It    ItLimit
  primal LP        :     101.59      15980          0       0.00       0.00     101.54      15980
  dual LP          :    1764.69     268043   12416896      50.45    7036.30      10.27      21923
  lex dual LP      :       0.00          0          0       0.00          -
  barrier LP       :       0.00          0          0       0.00          -       0.00          0
  resolve instable :       0.00          0          0       0.00          -
  diving/probing LP:     527.73      22316    6353823     284.72   12039.91
  strong branching :      19.31       1926     193209     100.32   10005.64          -          -        748
    (at root node) :          -         19       3862     203.26          -
  conflict analysis:      10.92       7446      73418       9.86    6723.26
NLP relaxation     :
  solve time       :      17.42 (20 calls)
  convexity        :  nonconvex (40 linear rows, 0 convex ineq., 0 nonconvex ineq., 1784 nonlinear eq. or two-sided ineq.)
NLP Solvers        :  #Problems  ProblemTi    #Solves  SolveTime      #Iter  Time/Iter      #Okay #TimeLimit #IterLimit #LObjLimit #Interrupt  #NumError #EvalError  #OutOfMem #LicenseEr #OtherTerm   #GlobOpt    #LocOpt  #Feasible #LocInfeas #GlobInfea #Unbounded   #Unknown
  ipopt            :         12       9.91         54     193.98       2131       0.09         51          0          3          0          0          0          0          0          0          0          0         41          1          8          0          0          4
B&B Tree           :
  number of runs   :          1
  nodes            :     217709 (139039 internal, 78670 leaves)
  feasible leaves  :         14
  infeas. leaves   :          1
  objective leaves :      78654
  nodes (total)    :     217709 (139039 internal, 78670 leaves)
  nodes left       :      59898
  max depth        :         72
  max depth (total):         72
  backtracks       :      42621 (19.6%)
  early backtracks :          0 (0.0%)
  nodes exc. ref.  :          0 (0.0%)
  delayed cutoffs  :          2
  repropagations   :        100 (325 domain reductions, 0 cutoffs)
  avg switch length:       5.38
  switching time   :     154.77
Estim. Tree Size   :     436362
Estimation Tree    : 278079 nodes (218181 visited, 139039 internal, 79142 leaves, 59898 open), weight: 0.0000 completed 0.1144
Estimations        :      estim      value      trend resolution     smooth
  wbe              : 2568221517389046          -          -          -          -
  tree-profile     :         -1          -          -          -          -
  gap              :    6251281    0.67905    0.00001        128    6100942
  tree-weight      :     436362    0.00000    0.00000        128     435463
  leaf-frequency   :     436362    0.36273   -0.00008        128     436207
  ssg              :   16864747    0.81940   -0.00001        128   16724015
  open-nodes       :     436362 59898.00000  110.17136        128     435463
Root Node          :
  First LP value   : -1.00000000000000e+00
  First LP Iters   :       1667 (10418.75 Iter/sec)
  First LP Time    :       0.16
  Final Dual Bound : -9.48686868686869e-01
  Final Root Iters :       3040
  Root LP Estimate : -3.50507162266056e-01
Solution           :
  Solutions found  :         45 (34 improvements)
  First Solution   : +1.00000000000000e+05   (in run 1, after 0 nodes, 0.00 seconds, depth 0, found by <trivial>)
  Gap First Sol.   :   infinite
  Gap Last Sol.    :      48.36 %
  Primal Bound     : -5.64444444444442e-01   (in run 1, after 134980 nodes, 2290.35 seconds, depth 20, found by <alns>)
  Dual Bound       : -8.31228182325969e-01
  Gap              :      47.26 %
Integrals          :      Total       Avg%
  primal-dual      :  123947.93      34.43
  primal-ref       :          -          - (not evaluated)
  dual-ref         :          -          - (not evaluated)
